seed= 2052018 ;
N= 10 ;
M= 2 ;
F= 2 ;
K= 4 ;
T= 12 ;

p=[ 2 2 2 2 2 2 2 2 2 2 ];
r=[ 1 0 1 0 0 1 0 1 1 1 ];
d=[ 0 0 2 0 0 3 2 3 0 3 ];
s=[ 1 1 1 1 1 1 1 1 1 1 ];
w=[ 2 5 3 1 5 2 2 4 5 4 ];
f=[ 1 1 1 1 1 2 2 2 2 2 ];

e1=[ 10 10 10 10 10 10 8 8 8 8 8 8 ];
e2=[ 10 10 10 10 9 9 8 8 8 8 9 9 ];